sat
(= |goto_symex::&92;guard#1| true)
(= |goto_symex::&92;guard#2| true)
(= |goto_symex::&92;guard#3| true)
(= |goto_symex::&92;guard#4| false)
(= |memory_model::choice_rf_1_34_0_11_T_0| true)
(= |memory_model::choice_rf_1_34_2_38_T_1| false)
(= |memory_model::choice_rf_1_34_3_19_T_2| false)
(= |memory_model::choice_rf_2_37_0_11_T_3| true)
(= |memory_model::choice_rf_2_37_1_35_T_4| false)
(= |memory_model::choice_rf_2_37_3_19_T_5| false)
(= |memory_model::choice_rf_3_18_0_11_T_6| false)
(= |memory_model::choice_rf_3_18_1_35_T_7| false)
(= |memory_model::choice_rf_3_18_2_38_T_8| true)
(= |memory_model::choice_rf_0_60_0_9_T_9| false)
(= |memory_model::choice_rf_0_60_0_56_T_10| true)
(= |memory_model::choice_rf_0_65_0_9_T_11| false)
(= |memory_model::choice_rf_0_65_0_56_T_12| false)
(= |memory_model::choice_rf_0_65_0_61_T_13| true)
(= |memory_model::choice_rf_0_72_0_37_F_14| false)
(= |memory_model::choice_rf_0_72_1_31_F_15| true)
(= |memory_model::choice_rf_0_72_2_17_F_16| false)
(= |memory_model::choice_rf_0_72_2_34_F_17| false)
(= |memory_model::choice_rf_0_72_3_15_F_18| false)
(= |memory_model::choice_rf_1_20_0_37_F_19| false)
(= |memory_model::choice_rf_1_20_0_83_F_20| false)
(= |memory_model::choice_rf_1_20_2_17_F_21| false)
(= |memory_model::choice_rf_1_20_2_34_F_22| true)
(= |memory_model::choice_rf_1_20_3_15_F_23| false)
(= |memory_model::choice_rf_2_6_0_37_F_24| true)
(= |memory_model::choice_rf_2_6_0_83_F_25| false)
(= |memory_model::choice_rf_2_6_1_31_F_26| false)
(= |memory_model::choice_rf_2_6_3_15_F_27| false)
(= |memory_model::choice_rf_2_23_0_37_F_28| false)
(= |memory_model::choice_rf_2_23_0_83_F_29| false)
(= |memory_model::choice_rf_2_23_1_31_F_30| false)
(= |memory_model::choice_rf_2_23_2_17_F_31| false)
(= |memory_model::choice_rf_2_23_3_15_F_32| true)
(= |memory_model::choice_rf_3_4_0_37_F_33| false)
(= |memory_model::choice_rf_3_4_0_83_F_34| false)
(= |memory_model::choice_rf_3_4_1_31_F_35| false)
(= |memory_model::choice_rf_3_4_2_17_F_36| true)
(= |memory_model::choice_rf_3_4_2_34_F_37| false)
(= |memory_model::choice_rf_0_69_0_12_F_38| false)
(= |memory_model::choice_rf_0_69_1_33_F_39| true)
(= |memory_model::choice_rf_0_69_2_36_F_40| false)
(= |memory_model::choice_rf_0_69_3_17_F_41| false)
(= |memory_model::choice_rf_1_32_0_12_F_42| false)
(= |memory_model::choice_rf_1_32_2_36_F_43| true)
(= |memory_model::choice_rf_1_32_3_17_F_44| false)
(= |memory_model::choice_rf_2_35_0_12_F_45| false)
(= |memory_model::choice_rf_2_35_1_33_F_46| false)
(= |memory_model::choice_rf_2_35_3_17_F_47| true)
(= |memory_model::choice_rf_3_16_0_12_F_48| true)
(= |memory_model::choice_rf_3_16_1_33_F_49| false)
(= |memory_model::choice_rf_3_16_2_36_F_50| false)
(= |memory_model::choice_rf_0_87_0_13_F_51| false)
(= |memory_model::choice_rf_0_87_2_7_F_52| false)
(= |memory_model::choice_rf_0_90_0_24_F_53| false)
(= |memory_model::choice_rf_0_90_2_11_F_54| true)
(= |memory_model::choice_rf_0_86_0_30_F_55| false)
(= |memory_model::choice_rf_0_86_3_1_F_56| true)
(= |memory_model::choice_rf_0_85_0_31_F_57| false)
(= |memory_model::choice_rf_0_85_3_3_F_58| true)
(= |memory_model::choice_rf_0_71_0_32_F_59| false)
(= |memory_model::choice_rf_0_71_0_70_F_60| true)
(= |memory_model::choice_rf_0_84_0_33_F_61| false)
(= |memory_model::choice_rf_0_95_0_33_F_62| false)
(= |memory_model::choice_rf_0_95_0_92_F_63| true)
(= |memory_model::choice_rf_0_96_0_33_F_64| false)
(= |memory_model::choice_rf_0_96_0_92_F_65| true)
(= |memory_model::choice_rf_0_77_0_40_F_66| true)
(= |memory_model::choice_rf_1_6_0_40_F_67| true)
(= |memory_model::choice_rf_1_6_0_80_F_68| false)
(= |memory_model::choice_rf_1_4_0_41_F_69| true)
(= |memory_model::choice_rf_1_25_0_41_F_70| false)
(= |memory_model::choice_rf_1_25_1_11_F_71| true)
(= |memory_model::choice_rf_1_2_0_42_F_72| false)
(= |memory_model::choice_rf_1_2_2_15_F_73| false)
(= |memory_model::choice_rf_1_2_2_31_F_74| true)
(= |memory_model::choice_rf_2_3_0_42_F_75| true)
(= |memory_model::choice_rf_2_27_0_42_F_76| false)
(= |memory_model::choice_rf_2_27_2_15_F_77| true)
(= |memory_model::choice_rf_1_1_0_43_F_78| false)
(= |memory_model::choice_rf_1_1_3_12_F_79| true)
(= |memory_model::choice_rf_3_8_0_43_F_80| true)
(= |memory_model::choice_rf_0_76_0_44_F_81| false)
(= |memory_model::choice_rf_0_76_1_13_F_82| true)
(= |memory_model::choice_rf_1_5_0_44_F_83| false)
(= |memory_model::choice_rf_1_5_0_79_F_84| false)
(= |memory_model::choice_rf_1_3_0_45_F_85| false)
(= |memory_model::choice_rf_1_24_0_45_F_86| false)
(= |memory_model::choice_rf_1_24_1_12_F_87| true)
(= |memory_model::choice_rf_1_8_0_46_F_88| false)
(= |memory_model::choice_rf_1_8_2_20_F_89| false)
(= |memory_model::choice_rf_1_8_2_30_F_90| false)
(= |memory_model::choice_rf_2_4_0_46_F_91| true)
(= |memory_model::choice_rf_2_4_1_15_F_92| false)
(= |memory_model::choice_rf_2_28_0_46_F_93| false)
(= |memory_model::choice_rf_2_28_1_15_F_94| false)
(= |memory_model::choice_rf_2_28_2_20_F_95| true)
(= |memory_model::choice_rf_1_7_0_47_F_96| false)
(= |memory_model::choice_rf_1_7_3_11_F_97| false)
(= |memory_model::choice_rf_3_9_0_47_F_98| true)
(= |memory_model::choice_rf_3_9_1_14_F_99| false)
(= |memory_model::choice_rf_0_75_0_50_F_100| false)
(= |memory_model::choice_rf_0_75_1_18_F_101| true)
(= |memory_model::choice_rf_0_75_2_10_F_102| false)
(= |memory_model::choice_rf_1_10_0_50_F_103| false)
(= |memory_model::choice_rf_1_10_2_10_F_104| true)
(= |memory_model::choice_rf_1_23_0_50_F_105| false)
(= |memory_model::choice_rf_1_23_1_18_F_106| true)
(= |memory_model::choice_rf_1_23_2_10_F_107| false)
(= |memory_model::choice_rf_2_2_0_50_F_108| true)
(= |memory_model::choice_rf_2_2_1_18_F_109| false)
(= |memory_model::choice_rf_2_26_0_50_F_110| false)
(= |memory_model::choice_rf_2_26_1_18_F_111| false)
(= |memory_model::choice_rf_2_26_2_10_F_112| true)
(= |memory_model::choice_rf_3_7_0_50_F_113| false)
(= |memory_model::choice_rf_3_7_1_18_F_114| false)
(= |memory_model::choice_rf_3_7_2_10_F_115| true)
(= |memory_model::choice_rf_0_78_0_51_F_116| false)
(= |memory_model::choice_rf_0_78_1_16_F_117| false)
(= |memory_model::choice_rf_0_78_1_30_F_118| true)
(= |memory_model::choice_rf_0_78_2_19_F_119| false)
(= |memory_model::choice_rf_0_78_2_33_F_120| false)
(= |memory_model::choice_rf_0_78_3_14_F_121| false)
(= |memory_model::choice_rf_1_9_0_51_F_122| false)
(= |memory_model::choice_rf_1_9_0_82_F_123| false)
(= |memory_model::choice_rf_1_9_2_19_F_124| false)
(= |memory_model::choice_rf_1_9_2_33_F_125| true)
(= |memory_model::choice_rf_1_9_3_14_F_126| false)
(= |memory_model::choice_rf_1_26_0_51_F_127| false)
(= |memory_model::choice_rf_1_26_0_82_F_128| false)
(= |memory_model::choice_rf_1_26_1_16_F_129| true)
(= |memory_model::choice_rf_1_26_2_19_F_130| false)
(= |memory_model::choice_rf_1_26_2_33_F_131| false)
(= |memory_model::choice_rf_1_26_3_14_F_132| false)
(= |memory_model::choice_rf_2_5_0_51_F_133| true)
(= |memory_model::choice_rf_2_5_0_82_F_134| false)
(= |memory_model::choice_rf_2_5_1_16_F_135| false)
(= |memory_model::choice_rf_2_5_1_30_F_136| false)
(= |memory_model::choice_rf_2_5_3_14_F_137| false)
(= |memory_model::choice_rf_2_29_0_51_F_138| false)
(= |memory_model::choice_rf_2_29_0_82_F_139| false)
(= |memory_model::choice_rf_2_29_1_16_F_140| false)
(= |memory_model::choice_rf_2_29_1_30_F_141| false)
(= |memory_model::choice_rf_2_29_2_19_F_142| false)
(= |memory_model::choice_rf_2_29_3_14_F_143| true)
(= |memory_model::choice_rf_3_10_0_51_F_144| false)
(= |memory_model::choice_rf_3_10_0_82_F_145| false)
(= |memory_model::choice_rf_3_10_1_16_F_146| false)
(= |memory_model::choice_rf_3_10_1_30_F_147| false)
(= |memory_model::choice_rf_3_10_2_19_F_148| true)
(= |memory_model::choice_rf_3_10_2_33_F_149| false)
(= |memory_model::choice_rf_0_73_0_52_F_150| false)
(= |memory_model::choice_rf_0_73_1_19_F_151| true)
(= |memory_model::choice_rf_0_73_2_18_F_152| false)
(= |memory_model::choice_rf_1_21_0_52_F_153| false)
(= |memory_model::choice_rf_1_21_1_19_F_154| true)
(= |memory_model::choice_rf_1_21_2_18_F_155| false)
(= |memory_model::choice_rf_2_0_0_52_F_156| true)
(= |memory_model::choice_rf_2_0_1_19_F_157| false)
(= |memory_model::choice_rf_2_24_0_52_F_158| false)
(= |memory_model::choice_rf_2_24_1_19_F_159| false)
(= |memory_model::choice_rf_2_24_2_18_F_160| true)
(= |memory_model::choice_rf_3_5_0_52_F_161| false)
(= |memory_model::choice_rf_3_5_1_19_F_162| false)
(= |memory_model::choice_rf_3_5_2_18_F_163| true)
(= |memory_model::choice_rf_0_74_0_53_F_164| false)
(= |memory_model::choice_rf_0_74_1_17_F_165| false)
(= |memory_model::choice_rf_0_74_1_29_F_166| true)
(= |memory_model::choice_rf_0_74_2_21_F_167| false)
(= |memory_model::choice_rf_0_74_2_32_F_168| false)
(= |memory_model::choice_rf_0_74_3_13_F_169| false)
(= |memory_model::choice_rf_1_22_0_53_F_170| false)
(= |memory_model::choice_rf_1_22_0_81_F_171| false)
(= |memory_model::choice_rf_1_22_1_17_F_172| true)
(= |memory_model::choice_rf_1_22_2_21_F_173| false)
(= |memory_model::choice_rf_1_22_2_32_F_174| false)
(= |memory_model::choice_rf_1_22_3_13_F_175| false)
(= |memory_model::choice_rf_2_1_0_53_F_176| true)
(= |memory_model::choice_rf_2_1_0_81_F_177| false)
(= |memory_model::choice_rf_2_1_1_17_F_178| false)
(= |memory_model::choice_rf_2_1_1_29_F_179| false)
(= |memory_model::choice_rf_2_1_3_13_F_180| false)
(= |memory_model::choice_rf_2_25_0_53_F_181| false)
(= |memory_model::choice_rf_2_25_0_81_F_182| false)
(= |memory_model::choice_rf_2_25_1_17_F_183| false)
(= |memory_model::choice_rf_2_25_1_29_F_184| false)
(= |memory_model::choice_rf_2_25_2_21_F_185| false)
(= |memory_model::choice_rf_2_25_3_13_F_186| true)
(= |memory_model::choice_rf_3_6_0_53_F_187| false)
(= |memory_model::choice_rf_3_6_0_81_F_188| false)
(= |memory_model::choice_rf_3_6_1_17_F_189| false)
(= |memory_model::choice_rf_3_6_1_29_F_190| false)
(= |memory_model::choice_rf_3_6_2_21_F_191| true)
(= |memory_model::choice_rf_3_6_2_32_F_192| false)
(= |memory_model::choice_rf_0_88_0_54_F_193| false)
(= |memory_model::choice_rf_0_88_1_0_F_194| true)
(= |memory_model::choice_rf_0_88_2_22_F_195| false)
(= |memory_model::choice_rf_3_0_0_54_F_196| false)
(= |memory_model::choice_rf_3_0_1_0_F_197| false)
(= |memory_model::choice_rf_3_0_2_22_F_198| true)
(= |memory_model::choice_rf_3_2_0_54_F_199| false)
(= |memory_model::choice_rf_3_2_1_0_F_200| false)
(= |memory_model::choice_rf_3_2_2_22_F_201| true)
(= |memory_model::choice_rf_0_91_0_35_F_202| false)
(= |memory_model::choice_rf_0_91_2_13_F_203| false)
(= |memory_model::choice_rf_0_89_0_2_F_204| true)
(= |memory_model::choice_ws-ext_0_11_1_35_T_205| true)
(= |memory_model::choice_ws-ext_0_11_2_38_T_206| true)
(= |memory_model::choice_ws-ext_0_11_3_19_T_207| true)
(= |memory_model::choice_ws-ext_1_35_2_38_T_208| true)
(= |memory_model::choice_ws-ext_1_35_3_19_T_209| true)
(= |memory_model::choice_ws-ext_2_38_3_19_T_210| true)
(= |memory_model::choice_ws-ext_0_37_1_31_F_211| true)
(= |memory_model::choice_ws-ext_0_37_2_17_F_212| true)
(= |memory_model::choice_ws-ext_0_37_2_34_F_213| true)
(= |memory_model::choice_ws-ext_0_37_3_15_F_214| true)
(= |memory_model::choice_ws-ext_0_83_1_31_F_215| false)
(= |memory_model::choice_ws-ext_0_83_2_17_F_216| false)
(= |memory_model::choice_ws-ext_0_83_2_34_F_217| false)
(= |memory_model::choice_ws-ext_0_83_3_15_F_218| false)
(= |memory_model::choice_ws-ext_1_31_2_17_F_219| false)
(= |memory_model::choice_ws-ext_1_31_2_34_F_220| false)
(= |memory_model::choice_ws-ext_1_31_3_15_F_221| false)
(= |memory_model::choice_ws-ext_2_17_3_15_F_222| true)
(= |memory_model::choice_ws-ext_2_34_3_15_F_223| false)
(= |memory_model::choice_ws-ext_0_12_1_33_F_224| true)
(= |memory_model::choice_ws-ext_0_12_2_36_F_225| true)
(= |memory_model::choice_ws-ext_0_12_3_17_F_226| true)
(= |memory_model::choice_ws-ext_1_33_2_36_F_227| false)
(= |memory_model::choice_ws-ext_1_33_3_17_F_228| false)
(= |memory_model::choice_ws-ext_2_36_3_17_F_229| false)
(= |memory_model::choice_ws-ext_0_13_2_7_F_230| true)
(= |memory_model::choice_ws-ext_0_93_2_7_F_231| false)
(= |memory_model::choice_ws-ext_0_24_2_11_F_232| true)
(= |memory_model::choice_ws-ext_0_25_2_8_F_233| true)
(= |memory_model::choice_ws-ext_0_30_3_1_F_234| true)
(= |memory_model::choice_ws-ext_0_31_3_3_F_235| true)
(= |memory_model::choice_ws-ext_0_38_2_14_F_236| true)
(= |memory_model::choice_ws-ext_0_39_2_16_F_237| true)
(= |memory_model::choice_ws-ext_0_41_1_11_F_238| true)
(= |memory_model::choice_ws-ext_0_41_1_28_F_239| true)
(= |memory_model::choice_ws-ext_0_42_2_15_F_240| true)
(= |memory_model::choice_ws-ext_0_42_2_31_F_241| true)
(= |memory_model::choice_ws-ext_0_43_3_12_F_242| true)
(= |memory_model::choice_ws-ext_0_44_1_13_F_243| true)
(= |memory_model::choice_ws-ext_0_79_1_13_F_244| false)
(= |memory_model::choice_ws-ext_0_45_1_12_F_245| true)
(= |memory_model::choice_ws-ext_0_45_1_27_F_246| true)
(= |memory_model::choice_ws-ext_0_46_1_15_F_247| true)
(= |memory_model::choice_ws-ext_0_46_2_20_F_248| true)
(= |memory_model::choice_ws-ext_0_46_2_30_F_249| true)
(= |memory_model::choice_ws-ext_1_15_2_20_F_250| false)
(= |memory_model::choice_ws-ext_1_15_2_30_F_251| false)
(= |memory_model::choice_ws-ext_0_47_1_14_F_252| true)
(= |memory_model::choice_ws-ext_0_47_3_11_F_253| true)
(= |memory_model::choice_ws-ext_1_14_3_11_F_254| false)
(= |memory_model::choice_ws-ext_0_50_1_18_F_255| true)
(= |memory_model::choice_ws-ext_0_50_2_10_F_256| true)
(= |memory_model::choice_ws-ext_1_18_2_10_F_257| false)
(= |memory_model::choice_ws-ext_0_51_1_16_F_258| true)
(= |memory_model::choice_ws-ext_0_51_1_30_F_259| true)
(= |memory_model::choice_ws-ext_0_51_2_19_F_260| true)
(= |memory_model::choice_ws-ext_0_51_2_33_F_261| true)
(= |memory_model::choice_ws-ext_0_51_3_14_F_262| true)
(= |memory_model::choice_ws-ext_0_82_1_16_F_263| false)
(= |memory_model::choice_ws-ext_0_82_1_30_F_264| false)
(= |memory_model::choice_ws-ext_0_82_2_19_F_265| false)
(= |memory_model::choice_ws-ext_0_82_2_33_F_266| false)
(= |memory_model::choice_ws-ext_0_82_3_14_F_267| false)
(= |memory_model::choice_ws-ext_1_16_2_19_F_268| false)
(= |memory_model::choice_ws-ext_1_16_2_33_F_269| false)
(= |memory_model::choice_ws-ext_1_16_3_14_F_270| false)
(= |memory_model::choice_ws-ext_1_30_2_19_F_271| false)
(= |memory_model::choice_ws-ext_1_30_2_33_F_272| false)
(= |memory_model::choice_ws-ext_1_30_3_14_F_273| false)
(= |memory_model::choice_ws-ext_2_19_3_14_F_274| true)
(= |memory_model::choice_ws-ext_2_33_3_14_F_275| false)
(= |memory_model::choice_ws-ext_0_52_1_19_F_276| true)
(= |memory_model::choice_ws-ext_0_52_2_18_F_277| true)
(= |memory_model::choice_ws-ext_1_19_2_18_F_278| false)
(= |memory_model::choice_ws-ext_0_53_1_17_F_279| true)
(= |memory_model::choice_ws-ext_0_53_1_29_F_280| true)
(= |memory_model::choice_ws-ext_0_53_2_21_F_281| true)
(= |memory_model::choice_ws-ext_0_53_2_32_F_282| true)
(= |memory_model::choice_ws-ext_0_53_3_13_F_283| true)
(= |memory_model::choice_ws-ext_0_81_1_17_F_284| false)
(= |memory_model::choice_ws-ext_0_81_1_29_F_285| false)
(= |memory_model::choice_ws-ext_0_81_2_21_F_286| false)
(= |memory_model::choice_ws-ext_0_81_2_32_F_287| false)
(= |memory_model::choice_ws-ext_0_81_3_13_F_288| false)
(= |memory_model::choice_ws-ext_1_17_2_21_F_289| false)
(= |memory_model::choice_ws-ext_1_17_2_32_F_290| false)
(= |memory_model::choice_ws-ext_1_17_3_13_F_291| false)
(= |memory_model::choice_ws-ext_1_29_2_21_F_292| false)
(= |memory_model::choice_ws-ext_1_29_2_32_F_293| false)
(= |memory_model::choice_ws-ext_1_29_3_13_F_294| false)
(= |memory_model::choice_ws-ext_2_21_3_13_F_295| true)
(= |memory_model::choice_ws-ext_2_32_3_13_F_296| false)
(= |memory_model::choice_ws-ext_0_54_1_0_F_297| true)
(= |memory_model::choice_ws-ext_0_54_2_22_F_298| true)
(= |memory_model::choice_ws-ext_1_0_2_22_F_299| false)
(= |memory_model::choice_ws-ext_0_34_2_9_F_300| true)
(= |memory_model::choice_ws-ext_0_35_2_13_F_301| true)
(= |memory_model::choice_ws-ext_0_94_2_13_F_302| false)
(= |memory_model::choice_ws-ext_0_36_2_12_F_303| true)
(= |main$tmp_guard0#3| #b00000001)
(= |__CPROVER_next_thread_id#3| #b00000000000000000000000000000001)
(= |__CPROVER_next_thread_id#6| #b00000000000000000000000000000010)
(= |__unbuffered_cnt#2| #b00000000000000000000000000000011)
(= |x$w_buff0_used#2| #b00000000)
(= |x$r_buff0_thd0#2| #b00000000)
(= |x$w_buff0#2| #b00000000000000000000000000000001)
(= |x$w_buff1_used#2| #b00000000)
(= |x$r_buff1_thd0#2| #b00000000)
(= |x$w_buff1#2| #b00000000000000000000000000000000)
(= |x#2| #b00000000000000000000000000000001)
(= |x#4| #b00000000000000000000000000000001)
(= |x$w_buff0_used#6| #b00000000)
(= |x$w_buff1_used#6| #b00000000)
(= |x$r_buff0_thd0#8| #b00000000)
(= |x$r_buff1_thd0#7| #b00000000)
(= |nondet_symex::nondet0| #b10000000000000000000000000000000)
(= |weak$$choice1#2| #b00000001)
(= |weak$$choice1#3| #b10000000)
(= |__unbuffered_p1_EAX$read_delayed#2| #b00000001)
(= |__unbuffered_p1_EAX$read_delayed_var$object#1| #b00000000000000000000000000000001)
(= |__unbuffered_p1_EAX#2| #b10000000000000000000000000000000)
(= |__unbuffered_p1_EAX#8| #b00000000000000000000000000000001)
(= |y#2| #b00000000000000000000000000000010)
(= |__unbuffered_p2_EAX#2| #b00000000000000000000000000000001)
(= |__unbuffered_p2_EBX#2| #b00000000000000000000000000000001)
(= |main$tmp_guard1#2| #b00000000)
(= |main$tmp_guard1#3| #b10000000)
(= |main$tmp_guard1#6| #b00000000)
(= |pthread_create::1::this_thread_id!1@0#0| #b10000000000000000000000000000000)
(= |x$w_buff0#4| #b00000000000000000000000000000000)
(= |x$w_buff0_used#11| #b00000000)
(= |x$r_buff0_thd0#11| #b00000000)
(= |x$r_buff1_thd0#9| #b00000000)
(= |x$r_buff1_thd0#10| #b10000000)
(= |x$r_buff0_thd1#2| #b00000000)
(= |x$r_buff1_thd1#2| #b00000000)
(= |x$r_buff1_thd1#3| #b10000000)
(= |x$r_buff0_thd2#2| #b00000000)
(= |x$r_buff1_thd2#2| #b00000000)
(= |x$r_buff1_thd2#3| #b10000000)
(= |x$r_buff0_thd3#2| #b00000000)
(= |x$r_buff1_thd3#2| #b00000000)
(= |x$r_buff1_thd3#3| #b10000000)
(= |x$r_buff0_thd1#4| #b00000001)
(= |x$w_buff0_used#14| #b00000001)
(= |x$r_buff0_thd1#6| #b00000001)
(= |x$w_buff0#7| #b00000000000000000000000000000001)
(= |x$w_buff1_used#10| #b00000000)
(= |x$r_buff1_thd1#5| #b00000000)
(= |x$w_buff1#5| #b00000000000000000000000000000000)
(= |x#6| #b00000000000000000000000000000000)
(= |x#8| #b00000000000000000000000000000001)
(= |x$w_buff0_used#18| #b00000000)
(= |x$w_buff1_used#14| #b00000000)
(= |x$r_buff0_thd1#12| #b00000001)
(= |x$r_buff1_thd1#10| #b00000000)
(= |__unbuffered_cnt#4| #b00000000000000000000000000000010)
(= |__unbuffered_cnt#6| #b00000000000000000000000000000011)
(= |pthread_create::1::this_thread_id!2@0#0| #b00000000000000000000000000000000)
(= |nondet_symex::nondet2| #b00000000000000000000000000000000)
(= |nondet_symex::nondet3| #b00000000000000000000000000000000)
(= |x#10| #b00000000000000000000000000000000)
(= |nondet_symex::nondet4| #b00000000000000000000000000000000)
(= |x$w_buff0_used#23| #b00000000)
(= |x$r_buff0_thd2#4| #b00000000)
(= |x$w_buff0#9| #b00000000000000000000000000000000)
(= |x$r_buff1_thd2#5| #b00000000)
(= |x$w_buff1_used#17| #b00000000)
(= |x$w_buff1#7| #b00000000000000000000000000000000)
(= |x$w_buff0_used#26| #b00000000)
(= |x$r_buff0_thd2#7| #b00000000)
(= |x$w_buff0#12| #b00000000000000000000000000000000)
(= |x$w_buff1_used#20| #b00000000)
(= |x$r_buff1_thd2#8| #b00000000)
(= |x$w_buff1#10| #b00000000000000000000000000000000)
(= |x#14| #b00000000000000000000000000000000)
(= |__unbuffered_cnt#8| #b00000000000000000000000000000001)
(= |pthread_create::1::this_thread_id!3@0#0| #b11000000000000000000000000000000)
(= |y#6| #b00000000000000000000000000000001)
(= |y#8| #b00000000000000000000000000000001)
(= |x$w_buff0_used#29| #b00000000)
(= |x$r_buff0_thd3#4| #b00000000)
(= |x$w_buff0#14| #b00000000000000000000000000000000)
(= |x$w_buff1_used#23| #b00000000)
(= |x$r_buff1_thd3#5| #b00000000)
(= |x$w_buff1#12| #b00000000000000000000000000000000)
(= |x#17| #b00000000000000000000000000000000)
(= |__unbuffered_cnt#11| #b00000000000000000000000000000000)
(= |__CPROVER_threads_exited#1$wclk$8| #b00010110)
(= |__CPROVER_threads_exited#2$rclk$8| #b11111010)
(= |__CPROVER_threads_exited#5$wclk$8| #b11111101)
(= |__CPROVER_threads_exited#7$wclk$8| #b11111111)
(= |__CPROVER_threads_exited#4$rclk$8| #b11111010)
(= |__CPROVER_threads_exited#3$wclk$8| #b11111100)
(= |__CPROVER_threads_exited#6$rclk$8| #b11111110)
(= |x#9$wclk$8| #b11111000)
(= |x#2$rclk$8| #b11111100)
(= |x#13$wclk$8| #b11010110)
(= |x#16$wclk$8| #b11110110)
(= |x#19$wclk$8| #b11110010)
(= |x#1$wclk$8| #b01101111)
(= |x#6$rclk$8| #b11111000)
(= |x#5$wclk$8| #b11111100)
(= |x#10$rclk$8| #b11010110)
(= |x#14$rclk$8| #b11110110)
(= |x#17$rclk$8| #b11110010)
(= |__unbuffered_cnt#7$wclk$8| #b11111001)
(= |__unbuffered_cnt#2$rclk$8| #b11111010)
(= |__unbuffered_cnt#10$wclk$8| #b11111000)
(= |__unbuffered_cnt#13$wclk$8| #b11110101)
(= |__unbuffered_cnt#1$wclk$8| #b00110011)
(= |__unbuffered_cnt#4$rclk$8| #b11111001)
(= |__unbuffered_cnt#8$rclk$8| #b11111000)
(= |__unbuffered_cnt#11$rclk$8| #b11110101)
(= |__unbuffered_p1_EAX#11$wclk$8| #b11010110)
(= |__unbuffered_p1_EAX#2$rclk$8| #b11111101)
(= |__unbuffered_p1_EAX$read_delayed#4$wclk$8| #b11010110)
(= |__unbuffered_p1_EAX$read_delayed#2$rclk$8| #b11111101)
(= |__unbuffered_p2_EAX#4$wclk$8| #b11011100)
(= |__unbuffered_p2_EAX#2$rclk$8| #b11111101)
(= |__unbuffered_p2_EBX#4$wclk$8| #b11110001)
(= |__unbuffered_p2_EBX#2$rclk$8| #b11111101)
(= |main$tmp_guard1#5| #b00000000)
(= |x$r_buff0_thd0#1$wclk$8| #b10011011)
(= |x$r_buff0_thd0#11$rclk$8| #b11110111)
(= |x$r_buff0_thd0#10$wclk$8| #b11111100)
(= |x$r_buff0_thd1#1$wclk$8| #b10101000)
(= |x$r_buff0_thd1#2$rclk$8| #b11110111)
(= |x$r_buff0_thd1#6$rclk$8| #b11111000)
(= |x$r_buff0_thd2#1$wclk$8| #b10101001)
(= |x$r_buff0_thd2#2$rclk$8| #b11110111)
(= |x$r_buff0_thd2#6$wclk$8| #b11010110)
(= |x$r_buff0_thd2#9$wclk$8| #b11110110)
(= |x$r_buff0_thd2#4$rclk$8| #b11010110)
(= |x$r_buff0_thd2#7$rclk$8| #b11110110)
(= |x$r_buff0_thd3#1$wclk$8| #b10101010)
(= |x$r_buff0_thd3#2$rclk$8| #b11110111)
(= |x$r_buff0_thd3#6$wclk$8| #b11110010)
(= |x$r_buff0_thd3#4$rclk$8| #b11110010)
(= |x$r_buff1_thd0#11$wclk$8| #b11110111)
(= |x$r_buff1_thd0#2$rclk$8| #b11111100)
(= |x$r_buff1_thd0#1$wclk$8| #b10101011)
(= |x$r_buff1_thd0#10$rclk$8| #b11110111)
(= |x$r_buff1_thd0#8$wclk$8| #b11111100)
(= |x$r_buff1_thd1#1$wclk$8| #b10101111)
(= |x$r_buff1_thd1#3$rclk$8| #b11110111)
(= |x$r_buff1_thd1#5$rclk$8| #b11111000)
(= |x$r_buff1_thd2#1$wclk$8| #b10110010)
(= |x$r_buff1_thd2#3$rclk$8| #b11110111)
(= |x$r_buff1_thd2#7$wclk$8| #b11010110)
(= |x$r_buff1_thd2#10$wclk$8| #b11110110)
(= |x$r_buff1_thd2#5$rclk$8| #b11010110)
(= |x$r_buff1_thd2#4$wclk$8| #b11110111)
(= |x$r_buff1_thd2#8$rclk$8| #b11110110)
(= |x$r_buff1_thd3#1$wclk$8| #b10110011)
(= |x$r_buff1_thd3#3$rclk$8| #b11110111)
(= |x$r_buff1_thd3#7$wclk$8| #b11110010)
(= |x$r_buff1_thd3#5$rclk$8| #b11110010)
(= |x$r_buff1_thd3#4$wclk$8| #b11110111)
(= |x$w_buff0#6$wclk$8| #b11110111)
(= |x$w_buff0#2$rclk$8| #b11111100)
(= |x$w_buff0#11$wclk$8| #b11010110)
(= |x$w_buff0#1$wclk$8| #b11000010)
(= |x$w_buff0#4$rclk$8| #b11110111)
(= |x$w_buff0#7$rclk$8| #b11111000)
(= |x$w_buff0#9$rclk$8| #b11010110)
(= |x$w_buff0#12$rclk$8| #b11110110)
(= |x$w_buff0#14$rclk$8| #b11110010)
(= |x$w_buff0_used#13$wclk$8| #b11110111)
(= |x$w_buff0_used#2$rclk$8| #b11111100)
(= |x$w_buff0_used#22$wclk$8| #b11111000)
(= |x$w_buff0_used#25$wclk$8| #b11010110)
(= |x$w_buff0_used#28$wclk$8| #b11110110)
(= |x$w_buff0_used#31$wclk$8| #b11110010)
(= |x$w_buff0_used#1$wclk$8| #b11000011)
(= |x$w_buff0_used#11$rclk$8| #b11110111)
(= |x$w_buff0_used#10$wclk$8| #b11111100)
(= |x$w_buff0_used#14$rclk$8| #b11111000)
(= |x$w_buff0_used#23$rclk$8| #b11010110)
(= |x$w_buff0_used#26$rclk$8| #b11110110)
(= |x$w_buff0_used#29$rclk$8| #b11110010)
(= |x$w_buff1#4$wclk$8| #b11110111)
(= |x$w_buff1#2$rclk$8| #b11111100)
(= |x$w_buff1#9$wclk$8| #b11010110)
(= |x$w_buff1#1$wclk$8| #b11000100)
(= |x$w_buff1#5$rclk$8| #b11111000)
(= |x$w_buff1#7$rclk$8| #b11010110)
(= |x$w_buff1#10$rclk$8| #b11110110)
(= |x$w_buff1#12$rclk$8| #b11110010)
(= |x$w_buff1_used#9$wclk$8| #b11110111)
(= |x$w_buff1_used#2$rclk$8| #b11111100)
(= |x$w_buff1_used#16$wclk$8| #b11111000)
(= |x$w_buff1_used#19$wclk$8| #b11010110)
(= |x$w_buff1_used#22$wclk$8| #b11110110)
(= |x$w_buff1_used#25$wclk$8| #b11110010)
(= |x$w_buff1_used#1$wclk$8| #b11000101)
(= |x$w_buff1_used#10$rclk$8| #b11111000)
(= |x$w_buff1_used#8$wclk$8| #b11111100)
(= |x$w_buff1_used#17$rclk$8| #b11010110)
(= |x$w_buff1_used#20$rclk$8| #b11110110)
(= |x$w_buff1_used#23$rclk$8| #b11110010)
(= |y#4$wclk$8| #b11110110)
(= |y#2$rclk$8| #b11111101)
(= |y#5$wclk$8| #b11010111)
(= |y#1$wclk$8| #b11000110)
(= |y#6$rclk$8| #b11011100)
(= |y#8$rclk$8| #b11110001)
(= |weak$$choice1#8$wclk$8| #b11010110)
(= |weak$$choice1#3$rclk$8| #b11111101)
(= __unbuffered_p1_EAX$read_delayed_var$object #b00000000000000000000000000000001)
(= |__unbuffered_p1_EAX#1$wclk$8| #b00110101)
(= |__unbuffered_p1_EAX#10$wclk$8| #b11111101)
(= |__unbuffered_p1_EAX$read_delayed#1$wclk$8| #b01001111)
(= |__unbuffered_p1_EAX$read_delayed_var#1$wclk$8| #b01010000)
(= |__unbuffered_p1_EAX$read_delayed_var#2$wclk$8| #b11010110)
(= |__unbuffered_p2_EAX#1$wclk$8| #b01101000)
(= |__unbuffered_p2_EBX#1$wclk$8| #b01101001)
(= |x$flush_delayed#1$wclk$8| #b10001011)
(= |x$flush_delayed#3$wclk$8| #b11010110)
(= |x$mem_tmp#1$wclk$8| #b10011010)
(= |x$mem_tmp#2$wclk$8| #b11010110)
(= |x$r_buff0_thd1#5$wclk$8| #b11110111)
(= |x$r_buff0_thd1#14$wclk$8| #b11111000)
(= |x$r_buff1_thd1#4$wclk$8| #b11110111)
(= |x$r_buff1_thd1#11$wclk$8| #b11111000)
(= |weak$$choice0#1$wclk$8| #b01101100)
(= |weak$$choice0#2$wclk$8| #b11010110)
(= |weak$$choice1#1$wclk$8| #b01101101)
(= |weak$$choice1#7$wclk$8| #b11111101)
(= |weak$$choice2#1$wclk$8| #b01101110)
(= |weak$$choice2#2$wclk$8| #b11010110)
(= t1$58$spwnclk$8 #b11001010)
(= t1$63$spwnclk$8 #b11010101)
(= t1$68$spwnclk$8 #b11011010)
(= |main::1::t1855!0@1$wclk$8| #b00000000)
(= |main::1::t1856!0@1$wclk$8| #b00000001)
(= __unbuffered_p1_EAX$read_delayed_var$object$wclk$8 #b00000010)
(= |__CPROVER_dead_object#1$wclk$8| #b00000011)
(= |__CPROVER_deallocated#1$wclk$8| #b00001010)
(= |__CPROVER_malloc_is_new_array#1$wclk$8| #b00010000)
(= |__CPROVER_malloc_object#1$wclk$8| #b00010001)
(= |__CPROVER_malloc_size#1$wclk$8| #b00010010)
(= |__CPROVER_memory_leak#1$wclk$8| #b00010011)
(= |__CPROVER_next_thread_id#1$wclk$8| #b00010100)
(= |__CPROVER_pipe_count#1$wclk$8| #b00010101)
(= |__unbuffered_p1_EAX$flush_delayed#1$wclk$8| #b00110110)
(= |__unbuffered_p1_EAX$mem_tmp#1$wclk$8| #b00110111)
(= |__unbuffered_p1_EAX$r_buff0_thd0#1$wclk$8| #b00111100)
(= |__unbuffered_p1_EAX$r_buff0_thd1#1$wclk$8| #b01000101)
(= |__unbuffered_p1_EAX$r_buff0_thd2#1$wclk$8| #b01001000)
(= |__unbuffered_p1_EAX$r_buff0_thd3#1$wclk$8| #b01001001)
(= |__unbuffered_p1_EAX$r_buff1_thd0#1$wclk$8| #b01001011)
(= |__unbuffered_p1_EAX$r_buff1_thd1#1$wclk$8| #b01001100)
(= |__unbuffered_p1_EAX$r_buff1_thd2#1$wclk$8| #b01001101)
(= |__unbuffered_p1_EAX$r_buff1_thd3#1$wclk$8| #b01001110)
(= |__unbuffered_p1_EAX$w_buff0#1$wclk$8| #b01010001)
(= |__unbuffered_p1_EAX$w_buff0_used#1$wclk$8| #b01010010)
(= |__unbuffered_p1_EAX$w_buff1#1$wclk$8| #b01010011)
(= |__unbuffered_p1_EAX$w_buff1_used#1$wclk$8| #b01100000)
(= |main$tmp_guard0#1$wclk$8| #b01101010)
(= |main$tmp_guard1#1$wclk$8| #b01101011)
(= |x$read_delayed#1$wclk$8| #b10110110)
(= |x$read_delayed_var#1$wclk$8| #b10110111)
(= |main::1::t1854!0@1#1$wclk$8| #b11000111)
(= |__CPROVER_next_thread_id#2$wclk$8| #b11001000)
(= |main::1::t1854!0@1#2$wclk$8| #b11001001)
(= |main::1::t1855!0@1#1$wclk$8| #b11001011)
(= |__CPROVER_next_thread_id#3$rclk$8| #b11001100)
(= |__CPROVER_next_thread_id#5$wclk$8| #b11001100)
(= |main::1::t1855!0@1#2$wclk$8| #b11010100)
(= |main::1::t1856!0@1#1$wclk$8| #b11010110)
(= |__CPROVER_next_thread_id#6$rclk$8| #b11010111)
(= |__CPROVER_next_thread_id#8$wclk$8| #b11010111)
(= |main::1::t1856!0@1#2$wclk$8| #b11011000)
(= |main$tmp_guard0#2$wclk$8| #b11111010)
(= |main$tmp_guard0#3$rclk$8| #b11111011)
(= |x$r_buff0_thd0#2$rclk$8| #b11111100)
(= |main$tmp_guard1#3$rclk$8| #b11111101)
(= |__unbuffered_p1_EAX$read_delayed_var$object#1$rclk$8| #b11111101)
(= |main$tmp_guard1#4$wclk$8| #b11111101)
(= |main$tmp_guard1#5$rclk$8| #b11111110)
(= |main$tmp_guard1#6$rclk$8| #b11111111)
(= array_of.0 @fun_11)
(= |__CPROVER_threads_exited#2| @fun_11)
(= |__CPROVER_threads_exited#4| @fun_11)
(= |__CPROVER_threads_exited#6| @fun_11)
(function @fun_11
 (type (Array (_ BitVec 32) (_ BitVec 1)))
 (= (@fun_11 #b01000000000000000000000000000000) #b0)
 (default #b1))

real	0m0.025s
user	0m0.022s
sys	0m0.003s
State: AC Run_time: 0.027142047882080078